50
1669 2863
1675 154
1909 3808
953 2830
1949 1594
1082 2853
3027 1385
471 3948
2365 1006
3102 3889
65 3653
2957 1030
1757 134
3533 737
3865 457
2562 2151
2329 3086
3424 3979
3959 1499
480 3889
945 2087
3795 216
767 1783
2486 247
2056 1926
3846 1159
789 1835
3958 3905
1190 3190
3711 2570
2692 3642
2072 3020
374 2897
550 7
1624 3836
1621 1288
2281 1931
1960 3192
867 1053
3565 472
3537 167
2868 3179
2044 538
2274 1430
134 256
993 1379
1883 167
2106 1452
2628 2946
1766 3062